job_count = 28 ;
duration = [|9, 21, 11, 7|31, 4, 6, 2|28, 7, 6, 2|28, 24, 13, 5|7, 5, 11, 3|27, 9, 7, 9|32, 26, 9, 4|30, 9, 12, 4|9, 12, 18, 4|4, 4, 15, 8|34, 12, 18, 2|12, 19, 12, 7|36, 6, 3, 1|4, 26, 8, 2|17, 9, 12, 3|27, 6, 16, 7|13, 18, 10, 9|4, 28, 7, 2|6, 3, 7, 1|10, 20, 10, 7|11, 21, 16, 4|35, 24, 15, 1|24, 14, 9, 5|11, 3, 2, 4|14, 7, 8, 9|37, 23, 7, 6|24, 8, 14, 8|33, 26, 16, 6|] ;
machine_count = 4 ;
cost = [|19, 37, 47, 43|17, 38, 30, 56|15, 23, 31, 52|15, 20, 53, 53|17, 25, 47, 75|15, 32, 49, 69|12, 35, 49, 78|14, 36, 41, 62|15, 25, 56, 47|12, 29, 55, 42|18, 27, 32, 64|15, 32, 47, 75|16, 24, 35, 55|18, 36, 58, 60|15, 33, 39, 71|12, 23, 31, 43|19, 20, 36, 46|19, 26, 59, 40|10, 34, 39, 51|17, 21, 32, 68|13, 39, 56, 69|17, 36, 49, 44|19, 36, 46, 51|15, 27, 36, 54|18, 29, 30, 71|12, 39, 47, 61|15, 35, 49, 48|11, 24, 56, 73|] ;
deadline = [58, 58, 58, 58, 58, 58, 58, 58, 58, 58, 58, 58, 58, 58, 58, 58, 58, 58, 58, 58, 58, 58, 58, 58, 58, 58, 58, 58] ;
release = [0, 0, 0, 0, 0, 0, 0, 0, 0, 0, 0, 0, 0, 0, 0, 0, 0, 0, 0, 0, 0, 0, 0, 0, 0, 0, 0, 0] ;
resource = [|6, 6, 6, 6|3, 3, 3, 3|8, 8, 8, 8|5, 5, 5, 5|6, 6, 6, 6|7, 7, 7, 7|9, 9, 9, 9|3, 3, 3, 3|9, 9, 9, 9|7, 7, 7, 7|1, 1, 1, 1|1, 1, 1, 1|1, 1, 1, 1|3, 3, 3, 3|2, 2, 2, 2|2, 2, 2, 2|7, 7, 7, 7|6, 6, 6, 6|6, 6, 6, 6|8, 8, 8, 8|5, 5, 5, 5|1, 1, 1, 1|1, 1, 1, 1|2, 2, 2, 2|2, 2, 2, 2|8, 8, 8, 8|6, 6, 6, 6|4, 4, 4, 4|] ;
capacities = [10, 10, 10, 10] ;
